decision_x1=[0,7];
decision_x2=[0,7];
decision_x3=[0,7];
decision_x4=[0,7];
decision_x5=[0,7];
decision_x6=[0,7];
decision_x7=[0,7];
decision_x8=[0,7];
decision_x9=[0,7];
decision_x10=[0,7];
decision_x11=[0,7];
decision_x12=[0,7];
decision_x13=[0,7];
decision_x14=[0,7];
decision_x15=[0,7];
decision_x16=[0,7];
decision_x17=[0,7];
decision_x18=[0,7];
decision_x19=[0,7];
decision_x20=[0,7];
random_y1=[0,7];
random_y2=[0,7];
random_y3=[0,7];
random_y4=[0,7];
random_y5=[0,7];
random_y6=[0,7];
random_y7=[0,7];
random_y8=[0,7];
random_y9=[0,7];
constraint_x2_x1=[
0,0,1.3|
0,1,5.1|
0,2,0.71|
0,3,9.5|
0,4,8|
0,5,1.1|
0,6,2.4|
0,7,3.6|
1,0,4.8|
1,1,2.4|
1,2,8.2|
1,3,6.2|
1,4,7.8|
1,5,1.5|
1,6,9.4|
1,7,3.9|
2,0,4|
2,1,4.6|
2,2,7.8|
2,3,2.5|
2,4,8.9|
2,5,5.4|
2,6,6.1|
2,7,9.5|
3,0,1.1|
3,1,4.2|
3,2,5.2|
3,3,6.2|
3,4,9.7|
3,5,2|
3,6,8.8|
3,7,2.2|
4,0,9.4|
4,1,9|
4,2,1.4|
4,3,0.58|
4,4,4.9|
4,5,4.4|
4,6,0.2|
4,7,7.8|
5,0,8.3|
5,1,1.8|
5,2,4.6|
5,3,4|
5,4,4.4|
5,5,8.7|
5,6,8.3|
5,7,5.3|
6,0,4.8|
6,1,4.4|
6,2,0.86|
6,3,2.2|
6,4,6.3|
6,5,8.8|
6,6,1.5|
6,7,4.7|
7,0,9.9|
7,1,9.2|
7,2,8.1|
7,3,2.6|
7,4,8.1|
7,5,8.5|
7,6,3.6|
7,7,0.51|
];
constraint_x3_x2=[
0,0,2.8|
0,1,4|
0,2,0.65|
0,3,3.8|
0,4,6|
0,5,5.5|
0,6,9.5|
0,7,9.5|
1,0,6.3|
1,1,3.1|
1,2,6.6|
1,3,8.5|
1,4,3.8|
1,5,4.8|
1,6,2.9|
1,7,6.3|
2,0,0.04|
2,1,0.3|
2,2,1.3|
2,3,9.8|
2,4,3.1|
2,5,0.61|
2,6,2.8|
2,7,10|
3,0,0.98|
3,1,7.3|
3,2,4.3|
3,3,4.8|
3,4,2.6|
3,5,2.6|
3,6,3|
3,7,2.5|
4,0,6.1|
4,1,5.1|
4,2,2.3|
4,3,7.5|
4,4,6.4|
4,5,4.7|
4,6,9.4|
4,7,6.1|
5,0,3.9|
5,1,7|
5,2,8.8|
5,3,3.1|
5,4,2.5|
5,5,6.1|
5,6,7.3|
5,7,9.4|
6,0,6.1|
6,1,3.9|
6,2,1.3|
6,3,2|
6,4,7.7|
6,5,3.8|
6,6,5.4|
6,7,6.5|
7,0,0.3|
7,1,3|
7,2,7.7|
7,3,5.5|
7,4,0.64|
7,5,0.47|
7,6,5|
7,7,9.4|
];
constraint_x4_x3=[
0,0,9.3|
0,1,4.2|
0,2,1.9|
0,3,1.1|
0,4,0.44|
0,5,7.4|
0,6,5.9|
0,7,5.8|
1,0,7|
1,1,8.3|
1,2,8.7|
1,3,8.8|
1,4,6.7|
1,5,9.9|
1,6,4.9|
1,7,5.6|
2,0,3.2|
2,1,9.8|
2,2,0.84|
2,3,4.1|
2,4,4.1|
2,5,7.7|
2,6,6|
2,7,0.41|
3,0,2.2|
3,1,4.2|
3,2,1.7|
3,3,2.5|
3,4,4|
3,5,6.7|
3,6,0.97|
3,7,8.2|
4,0,2.8|
4,1,6.6|
4,2,5.2|
4,3,6.2|
4,4,6.3|
4,5,7.1|
4,6,6.9|
4,7,4.4|
5,0,6.9|
5,1,0.97|
5,2,4.7|
5,3,1.4|
5,4,2.1|
5,5,4.7|
5,6,8.3|
5,7,3.6|
6,0,3.4|
6,1,7|
6,2,9.8|
6,3,5.2|
6,4,9.8|
6,5,0.27|
6,6,2.6|
6,7,0.45|
7,0,1.4|
7,1,0.73|
7,2,8.6|
7,3,3.7|
7,4,3.5|
7,5,5.4|
7,6,3.7|
7,7,0.79|
];
constraint_x5_x1=[
0,0,6.9|
0,1,4.5|
0,2,9.9|
0,3,2.4|
0,4,3|
0,5,0.57|
0,6,7.6|
0,7,7.7|
1,0,8|
1,1,8.9|
1,2,1.4|
1,3,8.3|
1,4,1.3|
1,5,8.7|
1,6,4.5|
1,7,2.5|
2,0,4.3|
2,1,4.5|
2,2,8.8|
2,3,7.6|
2,4,6.3|
2,5,7.3|
2,6,0.3|
2,7,3.9|
3,0,9.6|
3,1,7.5|
3,2,4.2|
3,3,3.6|
3,4,0.82|
3,5,2|
3,6,7.6|
3,7,1.4|
4,0,2.8|
4,1,7.4|
4,2,3.6|
4,3,0.83|
4,4,5.5|
4,5,7.7|
4,6,3.7|
4,7,2.6|
5,0,8.6|
5,1,8.2|
5,2,2.8|
5,3,3.9|
5,4,4.4|
5,5,6|
5,6,6.2|
5,7,5.7|
6,0,4.7|
6,1,7.3|
6,2,0.74|
6,3,0.19|
6,4,9.8|
6,5,4.6|
6,6,2.2|
6,7,6.4|
7,0,0.9|
7,1,2.7|
7,2,8.9|
7,3,7.4|
7,4,2.1|
7,5,0.87|
7,6,3.7|
7,7,7.4|
];
constraint_x6_x2=[
0,0,6|
0,1,2.7|
0,2,2.6|
0,3,6.5|
0,4,3.1|
0,5,5.5|
0,6,8.7|
0,7,1.2|
1,0,9.6|
1,1,5.1|
1,2,5.3|
1,3,5.5|
1,4,5.9|
1,5,8.6|
1,6,8|
1,7,7.9|
2,0,2.1|
2,1,0.76|
2,2,3.1|
2,3,9.1|
2,4,8.9|
2,5,3.8|
2,6,2|
2,7,3.8|
3,0,5.4|
3,1,3.3|
3,2,7.1|
3,3,6.8|
3,4,1.1|
3,5,9|
3,6,6.1|
3,7,0.38|
4,0,5.2|
4,1,9.2|
4,2,7.3|
4,3,2.8|
4,4,2.4|
4,5,9.8|
4,6,6.6|
4,7,8|
5,0,6.8|
5,1,8.1|
5,2,5.9|
5,3,2.8|
5,4,6.2|
5,5,3.9|
5,6,0.98|
5,7,4.3|
6,0,0.4|
6,1,6.3|
6,2,9|
6,3,9.1|
6,4,8.2|
6,5,0.34|
6,6,0.44|
6,7,8.4|
7,0,5.5|
7,1,2.1|
7,2,7.2|
7,3,9.2|
7,4,9.2|
7,5,6.9|
7,6,8.7|
7,7,8.6|
];
constraint_x6_x5=[
0,0,6.6|
0,1,1.7|
0,2,3.9|
0,3,2|
0,4,1.9|
0,5,8.5|
0,6,9.5|
0,7,9|
1,0,9.3|
1,1,3.4|
1,2,6.6|
1,3,9.2|
1,4,6.4|
1,5,3.8|
1,6,0.41|
1,7,4.1|
2,0,4.6|
2,1,6.8|
2,2,4.7|
2,3,8.9|
2,4,4|
2,5,2|
2,6,6.9|
2,7,9.5|
3,0,4.6|
3,1,0.93|
3,2,7.1|
3,3,1.5|
3,4,7.2|
3,5,5.8|
3,6,7.2|
3,7,7.4|
4,0,4.8|
4,1,3.4|
4,2,4.9|
4,3,6.1|
4,4,3.7|
4,5,5.8|
4,6,6.5|
4,7,6.3|
5,0,5.3|
5,1,2.6|
5,2,0.15|
5,3,5.4|
5,4,5.7|
5,5,4.7|
5,6,3.2|
5,7,8.2|
6,0,0.85|
6,1,8.9|
6,2,1.3|
6,3,9.1|
6,4,2.1|
6,5,4.7|
6,6,4.8|
6,7,5.8|
7,0,7.8|
7,1,3.2|
7,2,5.1|
7,3,3|
7,4,2.3|
7,5,9.6|
7,6,5.4|
7,7,1.8|
];
constraint_x7_x3=[
0,0,9.7|
0,1,6.2|
0,2,1.5|
0,3,7.4|
0,4,1.8|
0,5,7.2|
0,6,9.1|
0,7,9.9|
1,0,8.2|
1,1,7.6|
1,2,7.4|
1,3,2|
1,4,3.5|
1,5,2.9|
1,6,9.6|
1,7,8.2|
2,0,2.2|
2,1,9.1|
2,2,1.2|
2,3,1.3|
2,4,8.6|
2,5,3.5|
2,6,1.7|
2,7,4|
3,0,3.9|
3,1,4.2|
3,2,4.6|
3,3,7.8|
3,4,1.1|
3,5,0.24|
3,6,3.1|
3,7,1.8|
4,0,0.56|
4,1,4.1|
4,2,4.9|
4,3,8.6|
4,4,7.8|
4,5,0.66|
4,6,3.6|
4,7,5.6|
5,0,2|
5,1,5.9|
5,2,6.4|
5,3,3.8|
5,4,4.2|
5,5,7.4|
5,6,9.7|
5,7,3.3|
6,0,3.4|
6,1,4.6|
6,2,1.4|
6,3,9.8|
6,4,4.8|
6,5,7.4|
6,6,2.1|
6,7,6.3|
7,0,5.4|
7,1,10|
7,2,8.3|
7,3,8|
7,4,5.8|
7,5,2.2|
7,6,7.5|
7,7,6.4|
];
constraint_x7_x6=[
0,0,3.3|
0,1,6.7|
0,2,6.3|
0,3,8.4|
0,4,5.7|
0,5,2.9|
0,6,3|
0,7,6.3|
1,0,2.7|
1,1,7.7|
1,2,2.6|
1,3,5.5|
1,4,2.4|
1,5,2|
1,6,6|
1,7,2.5|
2,0,8.1|
2,1,9.3|
2,2,6.8|
2,3,5|
2,4,7.5|
2,5,8.9|
2,6,0.28|
2,7,2.7|
3,0,7.6|
3,1,8.7|
3,2,0.29|
3,3,1.1|
3,4,1.8|
3,5,6.6|
3,6,1.5|
3,7,7.9|
4,0,6.7|
4,1,7.5|
4,2,1.6|
4,3,3.9|
4,4,0.77|
4,5,4.7|
4,6,6.3|
4,7,2.7|
5,0,0.79|
5,1,8.6|
5,2,4.1|
5,3,9.6|
5,4,4.5|
5,5,4.7|
5,6,2.5|
5,7,7.6|
6,0,3.2|
6,1,3.4|
6,2,4|
6,3,2.5|
6,4,2.5|
6,5,2.2|
6,6,1.1|
6,7,5.2|
7,0,1.8|
7,1,2.2|
7,2,3.3|
7,3,9.1|
7,4,4.8|
7,5,1.6|
7,6,9.3|
7,7,2|
];
constraint_x8_x4=[
0,0,3.1|
0,1,8.2|
0,2,5.5|
0,3,8|
0,4,5.6|
0,5,5.8|
0,6,7.8|
0,7,0.82|
1,0,9.1|
1,1,1.5|
1,2,2.9|
1,3,8.5|
1,4,3.7|
1,5,2.2|
1,6,6.7|
1,7,6|
2,0,5.9|
2,1,5|
2,2,6.7|
2,3,8.2|
2,4,4.4|
2,5,4.9|
2,6,6.6|
2,7,6.3|
3,0,6.3|
3,1,0.23|
3,2,9.3|
3,3,6.6|
3,4,5.6|
3,5,0.96|
3,6,5.8|
3,7,6.3|
4,0,1.6|
4,1,7.6|
4,2,1.2|
4,3,6.6|
4,4,9.9|
4,5,1.7|
4,6,5|
4,7,5.5|
5,0,9.6|
5,1,3.8|
5,2,3.3|
5,3,7.6|
5,4,2.2|
5,5,4.6|
5,6,1.1|
5,7,0.92|
6,0,6.9|
6,1,1.7|
6,2,9.5|
6,3,8.1|
6,4,5.4|
6,5,2.5|
6,6,4.9|
6,7,0.34|
7,0,5.9|
7,1,8.3|
7,2,4.5|
7,3,7.2|
7,4,7.7|
7,5,0.45|
7,6,2.5|
7,7,2.1|
];
constraint_x8_x7=[
0,0,7.5|
0,1,2.7|
0,2,0.69|
0,3,4.3|
0,4,9.3|
0,5,9.1|
0,6,8|
0,7,4.9|
1,0,5.1|
1,1,3.7|
1,2,9.7|
1,3,5.9|
1,4,2.5|
1,5,0.022|
1,6,7.6|
1,7,2.5|
2,0,2.5|
2,1,4.6|
2,2,5.3|
2,3,2.5|
2,4,4.6|
2,5,0.18|
2,6,9.4|
2,7,0.38|
3,0,1.5|
3,1,6|
3,2,6.6|
3,3,3.9|
3,4,9.9|
3,5,5.8|
3,6,2.9|
3,7,0.31|
4,0,3.3|
4,1,4|
4,2,4.5|
4,3,7.1|
4,4,3.5|
4,5,8.5|
4,6,2.6|
4,7,0.54|
5,0,3.1|
5,1,3.6|
5,2,7.5|
5,3,3.4|
5,4,0.8|
5,5,6.8|
5,6,5.8|
5,7,6.8|
6,0,4.7|
6,1,4|
6,2,9.4|
6,3,9.2|
6,4,2.2|
6,5,3.9|
6,6,7.2|
6,7,7.3|
7,0,3.6|
7,1,9.5|
7,2,4.8|
7,3,3.4|
7,4,9.4|
7,5,5.2|
7,6,8.1|
7,7,9.3|
];
constraint_x9_x5=[
0,0,7.6|
0,1,4|
0,2,3.2|
0,3,5.2|
0,4,8.3|
0,5,8.1|
0,6,3.4|
0,7,0.79|
1,0,0.46|
1,1,3.3|
1,2,8.2|
1,3,1.5|
1,4,3|
1,5,5.4|
1,6,2|
1,7,0.29|
2,0,6.6|
2,1,2.6|
2,2,5.8|
2,3,8.7|
2,4,6.6|
2,5,3.5|
2,6,5.3|
2,7,1.2|
3,0,5.2|
3,1,0.59|
3,2,9.3|
3,3,3.1|
3,4,2.6|
3,5,4.9|
3,6,6.9|
3,7,8.8|
4,0,3.7|
4,1,3|
4,2,9.2|
4,3,3.9|
4,4,6.7|
4,5,2.3|
4,6,8.2|
4,7,1.5|
5,0,7.9|
5,1,1.3|
5,2,7.6|
5,3,7.6|
5,4,4.7|
5,5,8.6|
5,6,5.6|
5,7,2.8|
6,0,0.093|
6,1,6.9|
6,2,4.8|
6,3,8.1|
6,4,9.6|
6,5,9.2|
6,6,2.2|
6,7,4.6|
7,0,5.7|
7,1,5.2|
7,2,3|
7,3,2.2|
7,4,8.2|
7,5,7.7|
7,6,1.1|
7,7,4.6|
];
constraint_x10_x6=[
0,0,7|
0,1,8.3|
0,2,1.4|
0,3,0.00049|
0,4,3.4|
0,5,5|
0,6,3.7|
0,7,3.4|
1,0,1.3|
1,1,1.9|
1,2,6|
1,3,5.4|
1,4,8.1|
1,5,2|
1,6,1.1|
1,7,0.49|
2,0,3.8|
2,1,6.8|
2,2,1.2|
2,3,4.5|
2,4,4.7|
2,5,4.5|
2,6,0.068|
2,7,8.2|
3,0,6.4|
3,1,0.9|
3,2,5.4|
3,3,6.9|
3,4,2.8|
3,5,1.1|
3,6,9.9|
3,7,1.8|
4,0,8.1|
4,1,4.9|
4,2,2.8|
4,3,1.4|
4,4,3|
4,5,7.8|
4,6,3.7|
4,7,7|
5,0,9.1|
5,1,5.8|
5,2,0.16|
5,3,3.3|
5,4,2|
5,5,8.1|
5,6,1.7|
5,7,1.5|
6,0,2.2|
6,1,6.5|
6,2,1.4|
6,3,5.3|
6,4,9.7|
6,5,6.9|
6,6,3.9|
6,7,7.3|
7,0,8.1|
7,1,8.7|
7,2,9.3|
7,3,5.3|
7,4,8.5|
7,5,1.9|
7,6,4.1|
7,7,5|
];
constraint_x10_x9=[
0,0,0.43|
0,1,3.7|
0,2,9.9|
0,3,5.7|
0,4,8.9|
0,5,8|
0,6,6.2|
0,7,9.8|
1,0,0.063|
1,1,6.7|
1,2,8.3|
1,3,5.3|
1,4,0.76|
1,5,5.9|
1,6,9.4|
1,7,7.5|
2,0,7.1|
2,1,0.1|
2,2,6.1|
2,3,0.26|
2,4,2.6|
2,5,4.1|
2,6,7.2|
2,7,9|
3,0,7.4|
3,1,0.18|
3,2,4.6|
3,3,7.4|
3,4,8.4|
3,5,0.51|
3,6,2.5|
3,7,2.5|
4,0,5.5|
4,1,9.2|
4,2,2.3|
4,3,7.6|
4,4,3.6|
4,5,5.1|
4,6,5.7|
4,7,10|
5,0,2.7|
5,1,8.4|
5,2,8.7|
5,3,3.6|
5,4,5.4|
5,5,8.1|
5,6,5.5|
5,7,0.87|
6,0,5|
6,1,0.032|
6,2,7.9|
6,3,2.8|
6,4,1.9|
6,5,0.24|
6,6,1.9|
6,7,6|
7,0,4.2|
7,1,2.1|
7,2,3.1|
7,3,5.2|
7,4,9.8|
7,5,6.7|
7,6,3.6|
7,7,6.5|
];
constraint_x11_x7=[
0,0,7.3|
0,1,9.8|
0,2,3.3|
0,3,0.16|
0,4,0.36|
0,5,6.7|
0,6,5.1|
0,7,1.2|
1,0,8.9|
1,1,1.8|
1,2,2.2|
1,3,9.4|
1,4,3.2|
1,5,8.9|
1,6,10|
1,7,0.074|
2,0,3.2|
2,1,5.2|
2,2,4.6|
2,3,5.2|
2,4,7.6|
2,5,3.5|
2,6,2.5|
2,7,6.2|
3,0,5.5|
3,1,1.4|
3,2,9.6|
3,3,3.1|
3,4,1.8|
3,5,0.9|
3,6,3.7|
3,7,2.8|
4,0,6.3|
4,1,9.9|
4,2,6.2|
4,3,5.1|
4,4,2.6|
4,5,8.6|
4,6,6.7|
4,7,9.2|
5,0,4.4|
5,1,2.8|
5,2,0.64|
5,3,9.3|
5,4,3.7|
5,5,6.3|
5,6,8.9|
5,7,7.1|
6,0,3.6|
6,1,5.3|
6,2,4.6|
6,3,3.6|
6,4,9.6|
6,5,1.1|
6,6,6|
6,7,9.6|
7,0,8.6|
7,1,2.1|
7,2,1.9|
7,3,4.8|
7,4,4.6|
7,5,5.9|
7,6,6.6|
7,7,7.8|
];
constraint_x11_x10=[
0,0,6.1|
0,1,6.3|
0,2,3.2|
0,3,2|
0,4,4.1|
0,5,6.9|
0,6,9.1|
0,7,8.7|
1,0,1.9|
1,1,9.8|
1,2,7.1|
1,3,2.8|
1,4,2.1|
1,5,6.6|
1,6,6.5|
1,7,8.6|
2,0,0.99|
2,1,5.9|
2,2,3.1|
2,3,2.9|
2,4,5.8|
2,5,4.7|
2,6,7.3|
2,7,1.2|
3,0,0.39|
3,1,3|
3,2,7.2|
3,3,8.9|
3,4,4.4|
3,5,3.4|
3,6,3.9|
3,7,6.7|
4,0,0.89|
4,1,1.5|
4,2,7.2|
4,3,9.9|
4,4,3.3|
4,5,8.3|
4,6,3.5|
4,7,4|
5,0,9.6|
5,1,8.6|
5,2,7.5|
5,3,0.46|
5,4,7.1|
5,5,9.9|
5,6,7.7|
5,7,6.9|
6,0,8|
6,1,4.9|
6,2,7.8|
6,3,8.5|
6,4,5.6|
6,5,4.6|
6,6,4.7|
6,7,5.3|
7,0,5.2|
7,1,0.31|
7,2,8|
7,3,5|
7,4,0.56|
7,5,1.2|
7,6,0.25|
7,7,2.3|
];
constraint_x12_x8=[
0,0,6.3|
0,1,7.2|
0,2,6.6|
0,3,2.7|
0,4,4.8|
0,5,1.8|
0,6,9.5|
0,7,9.8|
1,0,6.3|
1,1,4|
1,2,1.8|
1,3,9.5|
1,4,1.5|
1,5,5.9|
1,6,3.7|
1,7,3.4|
2,0,4.7|
2,1,4.6|
2,2,0.97|
2,3,0.62|
2,4,7.6|
2,5,4.6|
2,6,8.6|
2,7,3.9|
3,0,4.7|
3,1,6.6|
3,2,9.3|
3,3,0.67|
3,4,3|
3,5,5.2|
3,6,6.4|
3,7,0.83|
4,0,3.6|
4,1,9.3|
4,2,4.2|
4,3,6.7|
4,4,5.6|
4,5,2.1|
4,6,9.7|
4,7,1.3|
5,0,1.9|
5,1,2.6|
5,2,0.82|
5,3,6.4|
5,4,3.1|
5,5,1.1|
5,6,8.4|
5,7,6|
6,0,5.6|
6,1,3.1|
6,2,0.56|
6,3,9.1|
6,4,6.7|
6,5,7.4|
6,6,1.2|
6,7,7.3|
7,0,0.25|
7,1,1.5|
7,2,1.7|
7,3,8.4|
7,4,2.5|
7,5,5.9|
7,6,8.3|
7,7,6.5|
];
constraint_x12_x11=[
0,0,2|
0,1,5.1|
0,2,0.09|
0,3,7.6|
0,4,0.066|
0,5,6.8|
0,6,7|
0,7,3.7|
1,0,7.1|
1,1,6.4|
1,2,5.2|
1,3,7.6|
1,4,4|
1,5,2.3|
1,6,4.3|
1,7,8.3|
2,0,3.3|
2,1,2|
2,2,9.7|
2,3,8.9|
2,4,7.8|
2,5,1.1|
2,6,3.7|
2,7,0.82|
3,0,8.6|
3,1,5.4|
3,2,6.7|
3,3,8.1|
3,4,9.9|
3,5,8.3|
3,6,2.2|
3,7,6.6|
4,0,0.79|
4,1,8.2|
4,2,5.2|
4,3,1.5|
4,4,4.1|
4,5,9.9|
4,6,2.1|
4,7,3.6|
5,0,3.9|
5,1,5.7|
5,2,0.93|
5,3,5.6|
5,4,9.8|
5,5,6.4|
5,6,9.8|
5,7,7.6|
6,0,3|
6,1,8|
6,2,4.3|
6,3,6|
6,4,6.5|
6,5,6.9|
6,6,1.5|
6,7,1.6|
7,0,1.5|
7,1,6|
7,2,5.7|
7,3,0.062|
7,4,0.19|
7,5,6.7|
7,6,0.72|
7,7,9.4|
];
constraint_x13_x9=[
0,0,3.7|
0,1,4.1|
0,2,6.3|
0,3,1.9|
0,4,8.1|
0,5,8.6|
0,6,9.6|
0,7,5.4|
1,0,1.1|
1,1,3.5|
1,2,10|
1,3,3.6|
1,4,10|
1,5,3.3|
1,6,7.6|
1,7,8.6|
2,0,8|
2,1,3.6|
2,2,0.81|
2,3,4.2|
2,4,5|
2,5,4.2|
2,6,5.8|
2,7,4.9|
3,0,0.65|
3,1,6.3|
3,2,9|
3,3,0.92|
3,4,10|
3,5,2.7|
3,6,0.45|
3,7,7.8|
4,0,9.1|
4,1,0.19|
4,2,0.047|
4,3,0.78|
4,4,5.1|
4,5,4.2|
4,6,7.3|
4,7,4.4|
5,0,1|
5,1,5.9|
5,2,5.4|
5,3,6.2|
5,4,1.8|
5,5,8|
5,6,6.8|
5,7,4.5|
6,0,3.3|
6,1,5.5|
6,2,0.7|
6,3,6.3|
6,4,2.4|
6,5,5.5|
6,6,8.4|
6,7,8.9|
7,0,3.1|
7,1,3.1|
7,2,4.7|
7,3,9.4|
7,4,2.4|
7,5,3.2|
7,6,3.7|
7,7,1.1|
];
constraint_x14_x10=[
0,0,4|
0,1,9|
0,2,8.7|
0,3,0.47|
0,4,8.3|
0,5,1.6|
0,6,6.2|
0,7,2.7|
1,0,0.3|
1,1,2.9|
1,2,7.3|
1,3,4.5|
1,4,4.9|
1,5,2.3|
1,6,3.2|
1,7,3.6|
2,0,2.7|
2,1,2.1|
2,2,2|
2,3,7.3|
2,4,4.6|
2,5,2.9|
2,6,5|
2,7,4.3|
3,0,7.9|
3,1,8.8|
3,2,3.1|
3,3,2.1|
3,4,0.62|
3,5,8.5|
3,6,0.51|
3,7,9|
4,0,5.8|
4,1,3|
4,2,3.8|
4,3,6.6|
4,4,4.3|
4,5,8|
4,6,2.3|
4,7,0.92|
5,0,1.2|
5,1,7|
5,2,7.9|
5,3,6.3|
5,4,1.6|
5,5,5.5|
5,6,6.1|
5,7,8.8|
6,0,8|
6,1,8.9|
6,2,9.8|
6,3,9.7|
6,4,5.1|
6,5,0.23|
6,6,8.4|
6,7,8.4|
7,0,10|
7,1,8.7|
7,2,4.6|
7,3,8|
7,4,1.9|
7,5,3.4|
7,6,7.4|
7,7,4.3|
];
constraint_x14_x13=[
0,0,1.5|
0,1,6.8|
0,2,4.3|
0,3,6.7|
0,4,2.7|
0,5,3.5|
0,6,0.96|
0,7,3.8|
1,0,9.8|
1,1,0.96|
1,2,9.6|
1,3,2.7|
1,4,8.7|
1,5,8.8|
1,6,0.28|
1,7,1.4|
2,0,2|
2,1,0.0075|
2,2,2.8|
2,3,8.8|
2,4,4.6|
2,5,1|
2,6,4.3|
2,7,0.16|
3,0,0.81|
3,1,7.1|
3,2,2.4|
3,3,0.19|
3,4,0.2|
3,5,2.7|
3,6,3.5|
3,7,4.2|
4,0,6.6|
4,1,9.4|
4,2,7.5|
4,3,5|
4,4,7.9|
4,5,1|
4,6,3.8|
4,7,4.2|
5,0,1.3|
5,1,6.9|
5,2,2.7|
5,3,5|
5,4,7.9|
5,5,2.1|
5,6,6.5|
5,7,0.039|
6,0,5.4|
6,1,5.5|
6,2,9.4|
6,3,10|
6,4,2.7|
6,5,3.2|
6,6,9.8|
6,7,3|
7,0,5.7|
7,1,2.3|
7,2,5.4|
7,3,4.1|
7,4,7.1|
7,5,3|
7,6,4.5|
7,7,0.87|
];
constraint_x15_x11=[
0,0,4.4|
0,1,3.9|
0,2,0.68|
0,3,8.5|
0,4,2.2|
0,5,2.9|
0,6,6.7|
0,7,5.8|
1,0,7.4|
1,1,6.6|
1,2,6.5|
1,3,9.7|
1,4,9.6|
1,5,1.8|
1,6,7.8|
1,7,1.3|
2,0,8.9|
2,1,6.8|
2,2,7.6|
2,3,0.59|
2,4,4.6|
2,5,8.8|
2,6,1|
2,7,3.4|
3,0,8.1|
3,1,9.5|
3,2,0.93|
3,3,4.9|
3,4,0.58|
3,5,1.4|
3,6,0.79|
3,7,4.5|
4,0,6.3|
4,1,2.7|
4,2,5.2|
4,3,3.9|
4,4,9.7|
4,5,5.2|
4,6,5.9|
4,7,5.1|
5,0,5.9|
5,1,4.9|
5,2,0.72|
5,3,9.1|
5,4,5.4|
5,5,1.4|
5,6,6.6|
5,7,1.5|
6,0,2.8|
6,1,8.3|
6,2,2.8|
6,3,8.1|
6,4,9.6|
6,5,0.27|
6,6,1.5|
6,7,7.7|
7,0,0.47|
7,1,3.6|
7,2,5.5|
7,3,5.9|
7,4,1.7|
7,5,8.3|
7,6,8.4|
7,7,9.3|
];
constraint_x15_x14=[
0,0,9.1|
0,1,3|
0,2,8.3|
0,3,6.2|
0,4,10|
0,5,8.2|
0,6,8.9|
0,7,4.7|
1,0,2.1|
1,1,3|
1,2,1.3|
1,3,0.43|
1,4,1.8|
1,5,3.8|
1,6,7.3|
1,7,7|
2,0,4.2|
2,1,4.5|
2,2,1.4|
2,3,5.5|
2,4,7.1|
2,5,4.1|
2,6,9|
2,7,4.9|
3,0,4.2|
3,1,1.2|
3,2,6.9|
3,3,0.24|
3,4,6.5|
3,5,3|
3,6,2.7|
3,7,7.2|
4,0,6.8|
4,1,1.3|
4,2,7.3|
4,3,0.68|
4,4,8.5|
4,5,0.098|
4,6,1.1|
4,7,1.8|
5,0,5.8|
5,1,9.3|
5,2,4.2|
5,3,3.3|
5,4,8.6|
5,5,7.4|
5,6,2|
5,7,7.6|
6,0,7.4|
6,1,1.8|
6,2,1.4|
6,3,3.6|
6,4,6.1|
6,5,3.9|
6,6,5.3|
6,7,4.8|
7,0,1.9|
7,1,0.41|
7,2,5.8|
7,3,2|
7,4,5.1|
7,5,2.4|
7,6,0.42|
7,7,2.5|
];
constraint_x16_x12=[
0,0,5.6|
0,1,2.1|
0,2,2.8|
0,3,5.8|
0,4,7.7|
0,5,8.6|
0,6,7.2|
0,7,9.7|
1,0,5.2|
1,1,7.3|
1,2,9.4|
1,3,1.9|
1,4,3.6|
1,5,3.2|
1,6,0.86|
1,7,7.4|
2,0,6.1|
2,1,8.3|
2,2,6.4|
2,3,2|
2,4,9.6|
2,5,8.4|
2,6,5.1|
2,7,8.8|
3,0,4.3|
3,1,5.5|
3,2,5.1|
3,3,1.1|
3,4,3.6|
3,5,0.29|
3,6,4.5|
3,7,0.32|
4,0,0.75|
4,1,0.82|
4,2,5.9|
4,3,6.8|
4,4,1.6|
4,5,1.3|
4,6,9.7|
4,7,4.4|
5,0,9.8|
5,1,9.4|
5,2,1.8|
5,3,6.6|
5,4,0.054|
5,5,7.7|
5,6,2.8|
5,7,4.5|
6,0,3.3|
6,1,4.1|
6,2,10|
6,3,6.1|
6,4,2|
6,5,3.6|
6,6,9|
6,7,6.2|
7,0,7.6|
7,1,0.41|
7,2,1|
7,3,4.3|
7,4,3.5|
7,5,0.38|
7,6,2.1|
7,7,5.8|
];
constraint_x16_x15=[
0,0,6.8|
0,1,4.7|
0,2,6|
0,3,2.6|
0,4,10|
0,5,7.2|
0,6,7.8|
0,7,1.2|
1,0,5|
1,1,7|
1,2,5.1|
1,3,1.9|
1,4,3.6|
1,5,2.8|
1,6,0.76|
1,7,8.3|
2,0,3.5|
2,1,2.4|
2,2,3|
2,3,0.59|
2,4,0.46|
2,5,2|
2,6,4.2|
2,7,5.2|
3,0,7.4|
3,1,4.3|
3,2,5.2|
3,3,2.6|
3,4,8.2|
3,5,4.5|
3,6,8.3|
3,7,5.8|
4,0,5.6|
4,1,3.6|
4,2,5.7|
4,3,7.6|
4,4,6.6|
4,5,2.2|
4,6,0.99|
4,7,5.2|
5,0,7.4|
5,1,4.3|
5,2,9.6|
5,3,5.4|
5,4,6.6|
5,5,4.6|
5,6,1|
5,7,1.9|
6,0,4.4|
6,1,7|
6,2,9.2|
6,3,5.5|
6,4,4.3|
6,5,4.6|
6,6,1|
6,7,0.2|
7,0,9.8|
7,1,9.8|
7,2,8.8|
7,3,1.4|
7,4,5.2|
7,5,6.1|
7,6,8.6|
7,7,2.4|
];
constraint_x17_x13=[
0,0,5.9|
0,1,7.6|
0,2,4.3|
0,3,4|
0,4,3.5|
0,5,2.4|
0,6,9.5|
0,7,2.4|
1,0,6.1|
1,1,7.2|
1,2,2.3|
1,3,6.7|
1,4,8.4|
1,5,9.5|
1,6,1.8|
1,7,9.3|
2,0,9.9|
2,1,8.4|
2,2,4|
2,3,2.7|
2,4,1.2|
2,5,2.8|
2,6,3.8|
2,7,3.9|
3,0,7.1|
3,1,9.2|
3,2,5.2|
3,3,7.9|
3,4,8|
3,5,0.94|
3,6,4.8|
3,7,1.1|
4,0,4.7|
4,1,2.8|
4,2,6|
4,3,6.4|
4,4,8.3|
4,5,3.9|
4,6,5.4|
4,7,6.6|
5,0,4.7|
5,1,2.9|
5,2,4.2|
5,3,9|
5,4,1.8|
5,5,6.2|
5,6,5|
5,7,9.4|
6,0,8.6|
6,1,1.7|
6,2,2.2|
6,3,5.2|
6,4,9.5|
6,5,8.6|
6,6,0.35|
6,7,4.6|
7,0,4.9|
7,1,8.3|
7,2,9.3|
7,3,4|
7,4,9|
7,5,8.8|
7,6,8.8|
7,7,6.8|
];
constraint_x18_x14=[
0,0,3.5|
0,1,0.29|
0,2,1.2|
0,3,3.5|
0,4,5.5|
0,5,7.1|
0,6,2.2|
0,7,4.9|
1,0,2.5|
1,1,4.6|
1,2,2.9|
1,3,8.9|
1,4,6.9|
1,5,4|
1,6,4.8|
1,7,3.9|
2,0,7.5|
2,1,5.1|
2,2,2.4|
2,3,8.3|
2,4,4.9|
2,5,6.6|
2,6,9.3|
2,7,1.7|
3,0,4.5|
3,1,7.3|
3,2,0.36|
3,3,6.3|
3,4,5.8|
3,5,3.8|
3,6,0.48|
3,7,4.1|
4,0,5.6|
4,1,9|
4,2,3.5|
4,3,9.7|
4,4,6.2|
4,5,5.3|
4,6,2.3|
4,7,7.6|
5,0,0.47|
5,1,8.6|
5,2,4.5|
5,3,7.3|
5,4,2.5|
5,5,2.5|
5,6,3.4|
5,7,4.9|
6,0,9.2|
6,1,2|
6,2,0.09|
6,3,4.6|
6,4,2.8|
6,5,9.5|
6,6,2.2|
6,7,4.2|
7,0,2.4|
7,1,9|
7,2,4.2|
7,3,8.5|
7,4,0.57|
7,5,8.7|
7,6,8.8|
7,7,6.1|
];
constraint_x18_x17=[
0,0,3.6|
0,1,5|
0,2,0.16|
0,3,7.3|
0,4,9.9|
0,5,6.1|
0,6,6.3|
0,7,5.3|
1,0,0.46|
1,1,2.8|
1,2,5.6|
1,3,9.5|
1,4,7.2|
1,5,4.4|
1,6,5.1|
1,7,6.9|
2,0,9.1|
2,1,5.2|
2,2,9.6|
2,3,5.9|
2,4,4.3|
2,5,9.5|
2,6,6.2|
2,7,6.2|
3,0,1.2|
3,1,9.2|
3,2,1.6|
3,3,2.9|
3,4,0.79|
3,5,9.5|
3,6,8.4|
3,7,8.2|
4,0,9.3|
4,1,4.6|
4,2,0.55|
4,3,3.8|
4,4,0.47|
4,5,0.35|
4,6,8.5|
4,7,3.8|
5,0,5.5|
5,1,3.2|
5,2,4.5|
5,3,1.3|
5,4,1.2|
5,5,0.2|
5,6,4.4|
5,7,0.28|
6,0,6.3|
6,1,3.4|
6,2,9.4|
6,3,5.6|
6,4,2.4|
6,5,6.1|
6,6,7.2|
6,7,3.2|
7,0,6|
7,1,6.9|
7,2,4.6|
7,3,1.5|
7,4,3.4|
7,5,8.8|
7,6,1.2|
7,7,4.9|
];
constraint_x19_x15=[
0,0,1.4|
0,1,6.9|
0,2,5.6|
0,3,8.7|
0,4,9.2|
0,5,6.6|
0,6,4|
0,7,0.8|
1,0,2.2|
1,1,9.3|
1,2,7.6|
1,3,8.9|
1,4,1.1|
1,5,9.8|
1,6,5.3|
1,7,5.1|
2,0,5.1|
2,1,4.7|
2,2,2.3|
2,3,8.5|
2,4,0.074|
2,5,0.49|
2,6,2.8|
2,7,6.1|
3,0,1.5|
3,1,2|
3,2,9.7|
3,3,3|
3,4,0.5|
3,5,7.3|
3,6,7.5|
3,7,3.3|
4,0,2.2|
4,1,7.9|
4,2,3.2|
4,3,1.6|
4,4,2.3|
4,5,5.3|
4,6,5.2|
4,7,5.7|
5,0,7.1|
5,1,9.2|
5,2,2.6|
5,3,3.1|
5,4,1.6|
5,5,9.8|
5,6,2.2|
5,7,2.3|
6,0,3.6|
6,1,9.3|
6,2,3.2|
6,3,5.2|
6,4,2.1|
6,5,0.87|
6,6,8.8|
6,7,0.32|
7,0,8.7|
7,1,3.6|
7,2,8.3|
7,3,3.9|
7,4,0.91|
7,5,9.4|
7,6,5.5|
7,7,4|
];
constraint_x19_x18=[
0,0,9.4|
0,1,8.5|
0,2,6|
0,3,2.3|
0,4,1.9|
0,5,8.9|
0,6,9.5|
0,7,0.55|
1,0,3.7|
1,1,1.7|
1,2,4|
1,3,4.1|
1,4,0.34|
1,5,2.7|
1,6,3.9|
1,7,6.4|
2,0,7.9|
2,1,3.7|
2,2,5.4|
2,3,3.5|
2,4,4|
2,5,0.47|
2,6,3|
2,7,2|
3,0,8|
3,1,6.1|
3,2,5.1|
3,3,6.1|
3,4,7.9|
3,5,9.9|
3,6,8.6|
3,7,6|
4,0,9.2|
4,1,7.8|
4,2,4.1|
4,3,0.25|
4,4,8.6|
4,5,9.5|
4,6,1.8|
4,7,5.6|
5,0,1|
5,1,7.4|
5,2,1.9|
5,3,4.4|
5,4,7.8|
5,5,5.1|
5,6,3.5|
5,7,0.56|
6,0,9.5|
6,1,1.7|
6,2,3.5|
6,3,7.1|
6,4,8.6|
6,5,7.1|
6,6,5|
6,7,4|
7,0,8.6|
7,1,5.6|
7,2,2.5|
7,3,5.8|
7,4,9.6|
7,5,10|
7,6,0.15|
7,7,9.4|
];
constraint_x20_x16=[
0,0,9.3|
0,1,7.4|
0,2,3|
0,3,2.7|
0,4,1.4|
0,5,0.62|
0,6,4.4|
0,7,8.9|
1,0,9.2|
1,1,1.2|
1,2,3.4|
1,3,5.7|
1,4,0.53|
1,5,1.8|
1,6,8.7|
1,7,5.3|
2,0,2|
2,1,1.6|
2,2,3.6|
2,3,7.6|
2,4,7.9|
2,5,0.24|
2,6,4.8|
2,7,6.7|
3,0,3.9|
3,1,9.7|
3,2,5.5|
3,3,0.95|
3,4,6.7|
3,5,2.7|
3,6,1.4|
3,7,7.4|
4,0,1.7|
4,1,5.1|
4,2,4.2|
4,3,7.7|
4,4,1.2|
4,5,7.1|
4,6,6.6|
4,7,6.5|
5,0,5.5|
5,1,0.95|
5,2,0.63|
5,3,4.8|
5,4,8.3|
5,5,8.8|
5,6,6.2|
5,7,8.2|
6,0,8|
6,1,8.6|
6,2,7|
6,3,4.5|
6,4,7.8|
6,5,3.6|
6,6,8|
6,7,3.7|
7,0,7.2|
7,1,7.4|
7,2,3.3|
7,3,8.1|
7,4,1.8|
7,5,8|
7,6,6.7|
7,7,0.035|
];
constraint_x20_x19=[
0,0,8.6|
0,1,0.31|
0,2,8.8|
0,3,8.6|
0,4,7.1|
0,5,2.6|
0,6,0.45|
0,7,5.1|
1,0,5.4|
1,1,3.1|
1,2,9.9|
1,3,8.6|
1,4,9.7|
1,5,9.2|
1,6,1.8|
1,7,7.8|
2,0,7.3|
2,1,8.3|
2,2,4.4|
2,3,2.6|
2,4,8.8|
2,5,1.1|
2,6,7.6|
2,7,6.7|
3,0,10|
3,1,9.1|
3,2,8.2|
3,3,8.8|
3,4,2.2|
3,5,3|
3,6,1.1|
3,7,4.5|
4,0,2.6|
4,1,7.3|
4,2,0.83|
4,3,0.84|
4,4,3.2|
4,5,5.3|
4,6,9.5|
4,7,4.4|
5,0,5.8|
5,1,3.3|
5,2,8.3|
5,3,5.3|
5,4,9.8|
5,5,7.6|
5,6,9.4|
5,7,2|
6,0,4.3|
6,1,6.4|
6,2,6.4|
6,3,5|
6,4,4.4|
6,5,0.96|
6,6,0.56|
6,7,2.6|
7,0,7.6|
7,1,0.87|
7,2,6.8|
7,3,5|
7,4,9.9|
7,5,8.7|
7,6,4.8|
7,7,5.3|
];
constraint_x1_y1=[
0,0,0.81|
0,1,7.4|
0,2,3.8|
0,3,2.5|
0,4,0.78|
0,5,9.1|
0,6,1.6|
0,7,2.2|
1,0,4.2|
1,1,0.61|
1,2,8.1|
1,3,1.2|
1,4,4.7|
1,5,1.6|
1,6,6.2|
1,7,1.2|
2,0,3.3|
2,1,2.7|
2,2,7.6|
2,3,5.1|
2,4,7.5|
2,5,8.8|
2,6,2.5|
2,7,9.3|
3,0,0.24|
3,1,6.1|
3,2,2.4|
3,3,5.9|
3,4,8.6|
3,5,9.9|
3,6,3.5|
3,7,0.53|
4,0,2.3|
4,1,7.7|
4,2,0.77|
4,3,3.8|
4,4,0.9|
4,5,0.78|
4,6,1.4|
4,7,4.1|
5,0,8.7|
5,1,6.6|
5,2,4.9|
5,3,6|
5,4,6.2|
5,5,7.4|
5,6,4.8|
5,7,9.8|
6,0,3|
6,1,2.3|
6,2,9.8|
6,3,6.9|
6,4,3|
6,5,4.6|
6,6,7.5|
6,7,7.4|
7,0,4.8|
7,1,2.9|
7,2,7.6|
7,3,3.2|
7,4,1.2|
7,5,8.7|
7,6,3|
7,7,0.5|
];
constraint_x2_y2=[
0,0,0.012|
0,1,9.2|
0,2,0.91|
0,3,2.5|
0,4,3|
0,5,6|
0,6,7.4|
0,7,3.4|
1,0,5.4|
1,1,8.2|
1,2,7.9|
1,3,1.8|
1,4,7.9|
1,5,3.5|
1,6,1.5|
1,7,6.8|
2,0,2.6|
2,1,2.6|
2,2,5.5|
2,3,9.1|
2,4,6.8|
2,5,0.97|
2,6,1.3|
2,7,2.6|
3,0,6.7|
3,1,9.8|
3,2,8.3|
3,3,4.3|
3,4,4.5|
3,5,7.9|
3,6,0.18|
3,7,1.9|
4,0,0.14|
4,1,6.7|
4,2,3.5|
4,3,1.1|
4,4,7.6|
4,5,7.6|
4,6,7.1|
4,7,2.9|
5,0,2.8|
5,1,5|
5,2,1.3|
5,3,7.1|
5,4,9.9|
5,5,1.9|
5,6,1.9|
5,7,9.5|
6,0,8.7|
6,1,6.7|
6,2,3.9|
6,3,9.1|
6,4,4|
6,5,6.8|
6,6,4.8|
6,7,1.3|
7,0,3.2|
7,1,6.4|
7,2,3.6|
7,3,0.25|
7,4,3.2|
7,5,1.9|
7,6,1.8|
7,7,7.7|
];
constraint_x3_y3=[
0,0,2.2|
0,1,3.2|
0,2,8.8|
0,3,1.6|
0,4,5.6|
0,5,3.4|
0,6,2.5|
0,7,6|
1,0,8.4|
1,1,8.2|
1,2,6.4|
1,3,2.2|
1,4,0.15|
1,5,0.83|
1,6,3.7|
1,7,9.5|
2,0,0.39|
2,1,3.3|
2,2,6.2|
2,3,2.1|
2,4,4.6|
2,5,6.8|
2,6,2.3|
2,7,8.6|
3,0,5.3|
3,1,6|
3,2,3.2|
3,3,9|
3,4,9.3|
3,5,4.7|
3,6,0.12|
3,7,3.1|
4,0,0.28|
4,1,7.7|
4,2,5.1|
4,3,5.6|
4,4,6.9|
4,5,5.3|
4,6,3.9|
4,7,6.2|
5,0,3.4|
5,1,3.9|
5,2,8.5|
5,3,6.4|
5,4,8|
5,5,2.3|
5,6,2.8|
5,7,5.2|
6,0,8.2|
6,1,0.76|
6,2,1.1|
6,3,0.0061|
6,4,0.46|
6,5,2.6|
6,6,2.3|
6,7,6.2|
7,0,9.8|
7,1,9.3|
7,2,3.6|
7,3,7.7|
7,4,3|
7,5,2.6|
7,6,9.6|
7,7,5.3|
];
constraint_x4_y4=[
0,0,1.2|
0,1,7.1|
0,2,8.7|
0,3,2.6|
0,4,9.3|
0,5,8.5|
0,6,8|
0,7,1.9|
1,0,6.3|
1,1,6.9|
1,2,7|
1,3,0.032|
1,4,8|
1,5,7|
1,6,0.98|
1,7,5.2|
2,0,4.9|
2,1,7.7|
2,2,0.8|
2,3,3.5|
2,4,5.7|
2,5,8.5|
2,6,7.6|
2,7,7.4|
3,0,5.7|
3,1,5.9|
3,2,8|
3,3,7.7|
3,4,2.2|
3,5,9.8|
3,6,0.1|
3,7,1.2|
4,0,2.8|
4,1,8.3|
4,2,6.3|
4,3,4.7|
4,4,5.6|
4,5,5.7|
4,6,8.9|
4,7,7.7|
5,0,6.5|
5,1,3.5|
5,2,2.5|
5,3,8.9|
5,4,4.3|
5,5,4|
5,6,2.5|
5,7,8.6|
6,0,1.6|
6,1,1.1|
6,2,4.8|
6,3,9.9|
6,4,3.7|
6,5,2.7|
6,6,6.9|
6,7,1.2|
7,0,6.6|
7,1,2.2|
7,2,2.1|
7,3,6.8|
7,4,3.6|
7,5,7.1|
7,6,9.2|
7,7,6.9|
];
constraint_x5_y5=[
0,0,7.3|
0,1,1.1|
0,2,8.5|
0,3,1.8|
0,4,7.3|
0,5,8.4|
0,6,3.7|
0,7,6.6|
1,0,9.5|
1,1,4.2|
1,2,4.7|
1,3,8.7|
1,4,4.8|
1,5,0.6|
1,6,3.6|
1,7,6.6|
2,0,4.1|
2,1,7.4|
2,2,9.9|
2,3,0.7|
2,4,0.26|
2,5,9.8|
2,6,9.7|
2,7,2.6|
3,0,8.6|
3,1,1.1|
3,2,9.1|
3,3,7.2|
3,4,9|
3,5,5.2|
3,6,1.6|
3,7,9.6|
4,0,5.2|
4,1,7.7|
4,2,4.1|
4,3,9|
4,4,2.6|
4,5,6.8|
4,6,3.1|
4,7,9.9|
5,0,1.1|
5,1,2|
5,2,7.1|
5,3,5.4|
5,4,8.3|
5,5,6.7|
5,6,1.9|
5,7,4.4|
6,0,5.4|
6,1,5.2|
6,2,5.3|
6,3,0.67|
6,4,0.34|
6,5,2.9|
6,6,4|
6,7,6.5|
7,0,3.3|
7,1,6.4|
7,2,4.4|
7,3,4.6|
7,4,7.5|
7,5,8.4|
7,6,7.1|
7,7,9.8|
];
constraint_x6_y6=[
0,0,7.3|
0,1,0.65|
0,2,7.5|
0,3,3.9|
0,4,1.5|
0,5,6|
0,6,0.42|
0,7,8.4|
1,0,9.2|
1,1,5.9|
1,2,2.3|
1,3,8.6|
1,4,1.6|
1,5,1.2|
1,6,7.4|
1,7,3.6|
2,0,9.2|
2,1,5.9|
2,2,2.2|
2,3,0.72|
2,4,0.93|
2,5,5.9|
2,6,1.2|
2,7,6.9|
3,0,3.7|
3,1,1.4|
3,2,9.4|
3,3,6.2|
3,4,2.1|
3,5,8.6|
3,6,9|
3,7,8.3|
4,0,8|
4,1,9.5|
4,2,4.6|
4,3,7.7|
4,4,5.8|
4,5,4.1|
4,6,3|
4,7,0.42|
5,0,3.4|
5,1,6.8|
5,2,5.1|
5,3,7.9|
5,4,3|
5,5,0.17|
5,6,7.6|
5,7,1.2|
6,0,0.57|
6,1,2.9|
6,2,8.4|
6,3,0.015|
6,4,2.6|
6,5,8.1|
6,6,4|
6,7,7.3|
7,0,9.2|
7,1,9.5|
7,2,6.7|
7,3,3.4|
7,4,8.4|
7,5,8.8|
7,6,8|
7,7,7.6|
];
constraint_x7_y7=[
0,0,3.6|
0,1,9.1|
0,2,9.3|
0,3,6.2|
0,4,5.9|
0,5,3.3|
0,6,9.6|
0,7,7.6|
1,0,6.9|
1,1,4.4|
1,2,6.3|
1,3,4.6|
1,4,9.5|
1,5,1.2|
1,6,7.9|
1,7,9.9|
2,0,0.15|
2,1,1.8|
2,2,8.3|
2,3,9.1|
2,4,9.2|
2,5,4.4|
2,6,2.1|
2,7,6.7|
3,0,6.4|
3,1,0.4|
3,2,9.9|
3,3,9.3|
3,4,4.6|
3,5,6.2|
3,6,6.9|
3,7,1|
4,0,3.5|
4,1,2.9|
4,2,0.019|
4,3,6.7|
4,4,8.4|
4,5,0.11|
4,6,8.2|
4,7,8.8|
5,0,6|
5,1,8.1|
5,2,2.2|
5,3,2.7|
5,4,1.7|
5,5,9.3|
5,6,4.6|
5,7,4.1|
6,0,4.8|
6,1,1.9|
6,2,1.8|
6,3,1.6|
6,4,3|
6,5,4.8|
6,6,8.3|
6,7,9.1|
7,0,4.4|
7,1,1.7|
7,2,8.2|
7,3,7.9|
7,4,7.4|
7,5,3.8|
7,6,7.8|
7,7,0.46|
];
constraint_x8_y8=[
0,0,3.6|
0,1,4.1|
0,2,6|
0,3,4.6|
0,4,2.3|
0,5,7.9|
0,6,5.4|
0,7,7.2|
1,0,9.8|
1,1,3.6|
1,2,3.7|
1,3,1.1|
1,4,8.5|
1,5,6.5|
1,6,1.8|
1,7,6.8|
2,0,7.6|
2,1,8.9|
2,2,5.9|
2,3,7.3|
2,4,5.8|
2,5,0.89|
2,6,1.6|
2,7,6|
3,0,7.4|
3,1,4.4|
3,2,5.3|
3,3,3.6|
3,4,6.7|
3,5,8.6|
3,6,9.2|
3,7,0.45|
4,0,9.2|
4,1,4.5|
4,2,2.9|
4,3,2.5|
4,4,4.8|
4,5,2.9|
4,6,7.6|
4,7,5.3|
5,0,3.9|
5,1,9.8|
5,2,4.7|
5,3,6.3|
5,4,6.5|
5,5,8.6|
5,6,8.7|
5,7,8.2|
6,0,4.4|
6,1,0.96|
6,2,0.43|
6,3,9.8|
6,4,4.8|
6,5,5.4|
6,6,1.7|
6,7,8|
7,0,7.6|
7,1,7|
7,2,0.76|
7,3,8.3|
7,4,8.7|
7,5,9.9|
7,6,8|
7,7,3.7|
];
constraint_x9_y9=[
0,0,9.8|
0,1,9|
0,2,3.3|
0,3,2.6|
0,4,3.8|
0,5,7|
0,6,8.2|
0,7,5.8|
1,0,4.9|
1,1,0.32|
1,2,6.3|
1,3,1.3|
1,4,4.3|
1,5,4.6|
1,6,1.7|
1,7,8|
2,0,5.9|
2,1,7|
2,2,9.4|
2,3,4.4|
2,4,5.3|
2,5,8.5|
2,6,0.83|
2,7,9.1|
3,0,9|
3,1,6.6|
3,2,5.2|
3,3,1.6|
3,4,2.2|
3,5,1.9|
3,6,8|
3,7,5.3|
4,0,7.4|
4,1,3.7|
4,2,5|
4,3,2.5|
4,4,8.4|
4,5,0.57|
4,6,4.4|
4,7,4.3|
5,0,6.5|
5,1,7.4|
5,2,8|
5,3,6.6|
5,4,1.8|
5,5,2.7|
5,6,9.1|
5,7,6.2|
6,0,5.7|
6,1,4.9|
6,2,3.3|
6,3,8.9|
6,4,5.5|
6,5,4.5|
6,6,4.2|
6,7,1.3|
7,0,5.1|
7,1,6.6|
7,2,4|
7,3,3.2|
7,4,4.9|
7,5,9.9|
7,6,9.4|
7,7,4.6|
];
initial_distribution_y1=[0.069,0.17,0.16,0.1,0.041,0.18,0.16,0.12];
initial_distribution_y2=[0.063,0.17,0.1,0.045,0.2,0.16,0.091,0.17];
initial_distribution_y3=[0.23,0.13,0.21,0.099,0.084,0.056,0.15,0.032];
initial_distribution_y4=[0.17,0.22,0.071,0.078,0.14,0.082,0.17,0.06];
initial_distribution_y5=[0.023,0.13,0.16,0.17,0.15,0.19,0.048,0.11];
initial_distribution_y6=[0.12,0.097,0.22,0.2,0.035,0.076,0.18,0.06];
initial_distribution_y7=[0.14,0.2,0.0092,0.1,0.098,0.16,0.17,0.13];
initial_distribution_y8=[0.038,0.088,0.2,0.12,0.13,0.13,0.21,0.075];
initial_distribution_y9=[0.24,0.079,0.0078,0.29,0.019,0.028,0.14,0.2];
transition_y1=[
0.091,0.17,0.23,0.13,0.16,0.087,0.1,0.033|
0.061,0.034,0.036,0.039,0.35,0.01,0.22,0.25|
0.2,0.13,0.12,0.22,0.027,0.11,0.052,0.13|
0.11,0.13,0.06,0.16,0.038,0.18,0.15,0.16|
0.11,0.0079,0.24,0.21,0.019,0.063,0.23,0.12|
0.15,0.11,0.035,0.054,0.21,0.24,0.1,0.1|
0.084,0.019,0.11,0.19,0.053,0.19,0.16,0.19|
0.19,0.17,0.17,0.11,0.016,0.19,0.086,0.074|
];
transition_y2=[
0.17,0.17,0.15,0.014,0.012,0.19,0.2,0.087|
0.22,0.13,0.24,0.017,0.048,0.17,0.0035,0.18|
0.14,0.23,0.063,0.18,0.007,0.17,0.0033,0.21|
0.2,0.05,0.12,0.22,0.038,0.11,0.029,0.23|
0.05,0.11,0.16,0.11,0.15,0.17,0.054,0.2|
0.19,0.12,0.11,0.21,0.1,0.12,0.11,0.037|
0.23,0.11,0.12,0.04,0.078,0.2,0.0085,0.22|
0.16,0.11,0.0057,0.2,0.19,0.11,0.0071,0.21|
];
transition_y3=[
0.12,0.23,0.19,0.084,0.13,0.22,0.019,0.013|
0.15,0.01,0.12,0.18,0.18,0.12,0.075,0.17|
0.11,0.086,0.19,0.091,0.21,0.19,0.07,0.046|
0.12,0.21,0.062,0.11,0.091,0.02,0.21,0.17|
0.18,0.17,0.12,0.11,0.13,0.076,0.12,0.11|
0.069,0.13,0.12,0.22,0.093,0.14,0.04,0.19|
0.13,0.073,0.11,0.15,0.15,0.2,0.011,0.18|
0.24,0.064,0.2,0.052,0.17,0.053,0.014,0.2|
];
transition_y4=[
0.11,0.066,0.1,0.19,0.19,0.061,0.089,0.2|
0.085,0.13,0.08,0.12,0.13,0.16,0.17,0.13|
0.11,0.075,0.12,0.25,0.25,0.025,0.11,0.054|
0.082,0.066,0.23,0.17,0.059,0.098,0.062,0.23|
0.1,0.16,0.11,0.22,0.091,0.19,0.059,0.074|
0.039,0.11,0.18,0.18,0.084,0.24,0.12,0.042|
0.02,0.11,0.11,0.17,0.11,0.14,0.18,0.16|
0.038,0.13,0.049,0.19,0.077,0.17,0.2,0.15|
];
transition_y5=[
0.0043,0.22,0.21,0.18,0.074,0.23,0.0049,0.072|
0.16,0.17,0.038,0.049,0.014,0.17,0.21,0.18|
0.21,0.2,0.015,0.11,0.037,0.21,0.2,0.012|
0.14,0.046,0.17,0.0086,0.15,0.43,0.049,0.011|
0.18,0.023,0.056,0.13,0.11,0.18,0.16,0.16|
0.015,0.012,0.15,0.21,0.21,0.071,0.18,0.15|
0.18,0.089,0.057,0.19,0.044,0.14,0.14,0.16|
0.093,0.087,0.11,0.13,0.12,0.17,0.16,0.14|
];
transition_y6=[
0.18,0.18,0.085,0.19,0.057,0.055,0.16,0.086|
0.04,0.13,0.14,0.15,0.14,0.063,0.16,0.17|
0.037,0.053,0.094,0.21,0.37,0.017,0.13,0.084|
0.056,0.099,0.13,0.31,0.23,0.03,0.13,0.02|
0.18,0.27,0.033,0.043,0.12,0.083,0.2,0.081|
0.13,0.062,0.1,0.22,0.041,0.19,0.16,0.09|
0.071,0.033,0.11,0.16,0.22,0.085,0.12,0.2|
0.12,0.098,0.25,0.074,0.17,0.17,0.0028,0.11|
];
transition_y7=[
0.18,0.13,0.24,0.13,0.013,0.19,0.076,0.038|
0.14,0.16,0.13,0.12,0.17,0.12,0.13,0.015|
0.14,0.062,0.09,0.033,0.12,0.26,0.2,0.095|
0.026,0.1,0.17,0.14,0.032,0.15,0.21,0.16|
0.084,0.15,0.14,0.063,0.038,0.2,0.17,0.16|
0.2,0.11,0.2,0.089,0.14,0.0044,0.21,0.05|
0.088,0.22,0.15,0.052,0.23,0.14,0.032,0.081|
0.01,0.16,0.062,0.058,0.11,0.26,0.3,0.03|
];
transition_y8=[
0.055,0.21,0.24,0.11,0.17,0.12,0.0078,0.087|
0.14,0.15,0.14,0.056,0.14,0.12,0.16,0.094|
0.12,0.22,0.16,0.0036,0.16,0.26,0.035,0.028|
0.16,0.061,0.099,0.13,0.13,0.1,0.17,0.14|
0.16,0.18,0.1,0.14,0.1,0.026,0.091,0.21|
0.24,0.061,0.065,0.14,0.082,0.057,0.085,0.27|
0.016,0.14,0.18,0.038,0.076,0.16,0.19,0.2|
0.12,0.19,0.13,0.18,0.16,0.0026,0.18,0.038|
];
transition_y9=[
0.18,0.079,0.067,0.11,0.023,0.18,0.2,0.16|
0.17,0.12,0.013,0.072,0.015,0.23,0.2,0.18|
0.013,0.084,0.18,0.16,0.17,0.17,0.21,0.014|
0.091,0.19,0.14,0.14,0.12,0.18,0.05,0.095|
0.19,0.16,0.09,0.022,0.25,0.017,0.17,0.1|
0.18,0.024,0.2,0.18,0.061,0.14,0.14,0.068|
0.051,0.035,0.15,0.12,0.13,0.21,0.21,0.082|
0.14,0.23,0.17,0.15,0.2,0.0073,0.014,0.09|
];
